\Problem name: RSWCC1

Minimize
OBJROW: -287.31000 x(0) -197.63700 x(1) -851.97400 x(2) -52.93300 x(3) -476.78700 x(4) -99.38020 x(5) -75.95080 x(6) -253.91200 x(7) -333.06500 x(8) -269.49700 x(9)
 -466.73000 x(10) -132.85200 x(12) -208.96500 x(13) -30.15710 x(14) -95.07270 x(15) -451.94800 x(16) -212.57500 x(17) -7.14988 x(18) -0.43884 x(19) -68.68550 x(20)
 -129.06500 x(21) -172.70100 x(22) -26.58230 x(23) -444.93600 x(24) -585.13100 x(25) -177.71900 x(26) -40.33270 x(27) -268.46400 x(28) -78.15540 x(29) -153.67000 x(30)
 -244.71700 x(31) -65.82460 x(32) -217.50600 x(33) -186.51300 x(34) -95.36430 x(35) -105.12800 x(36) -79.92390 x(37) -171.06400 x(38) -109.21300 x(39) -406.44500 x(40)
 -281.63800 x(41) -98.65140 x(42) -194.05000 x(43) -88.99530 x(44) -89.24190 x(45) -273.80200 x(46) -277.33900 x(47) + R
Subject To
constr(0):  x(1) + x(2) + x(3) + x(4) + x(5) + x(6) + x(7) + x(8) + x(9) + x(10)
 + x(11) + x(12) + x(13) + x(14) + x(15) + x(16) + x(17) + x(18) + x(19) + x(20)
 + x(21) + x(22) + x(23) + x(24) + x(25) + x(26) + x(27) + x(28) + x(29) + x(30)
 + x(31) + x(32) + x(33) + x(34) + x(35) + x(36) + x(37) + x(38) + x(39) + x(40)
 + x(41) + x(42) + x(43) + x(44) + x(45) + x(46) + x(47) <= 15
constr(1):  x(0) + x(1) + x(2) + x(3) + x(4) + x(5) + x(6) + x(7) + x(8) + x(9)
 + x(10) + x(11) + x(12) + x(13) + x(14) + x(15) + x(16) + x(17) + x(18) + x(19)
 + x(20) + x(21) + x(22) + x(23) + x(24) + x(25) + x(26) + x(27) + x(28) + x(30)
 + x(31) + x(32) + x(33) + x(34) + x(35) + x(36) + x(37) + x(38) + x(39) + x(40)
 + x(41) + x(42) + x(43) + x(44) + x(45) + x(46) + x(47) <= 15
constr(2):  x(0) - x(11) <= -0
constr(3):  x(1) - x(46) <= -0
constr(4):  x(2) - x(20) <= -0
constr(5):  x(3) - x(39) <= -0
constr(6):  x(4) - x(25) <= -0
constr(7):  x(5) - x(47) <= -0
constr(8):  x(6) - x(36) <= -0
constr(9):  x(7) - x(18) <= -0
constr(10):  x(8) - x(37) <= -0
constr(11):  x(9) - x(39) <= -0
constr(12):  - x(4) + x(10) <= -0
constr(13):  x(11) - x(32) <= -0
constr(14):  x(12) - x(15) <= -0
constr(15):  x(13) - x(46) <= -0
constr(16):  x(14) - x(20) <= -0
constr(17):  x(15) - x(32) <= -0
constr(18):  x(16) - x(22) <= -0
constr(19):  x(17) - x(19) <= -0
constr(20):  x(18) - x(32) <= -0
constr(21):  x(19) - x(36) <= -0
constr(22):  x(20) - x(32) <= -0
constr(23):  x(21) - x(46) <= -0
constr(24):  x(22) - x(46) <= -0
constr(25):  x(23) - x(32) <= -0
constr(26):  - x(9) + x(24) <= -0
constr(27):  x(25) - x(32) <= -0
constr(28):  x(26) - x(36) <= -0
constr(29):  - x(20) + x(27) <= -0
constr(30):  - x(14) + x(28) <= -0
constr(31):  - x(26) + x(29) <= -0
constr(32):  x(30) - x(46) <= -0
constr(33):  - x(0) + x(31) <= -0
constr(34):  x(32) = -1
constr(35):  - x(14) + x(33) <= -0
constr(36):  x(34) - x(44) <= -0
constr(37):  - x(27) + x(35) <= -0
constr(38):  - x(32) + x(36) <= -0
constr(39):  - x(15) + x(37) <= -0
constr(40):  - x(31) + x(38) <= -0
constr(41):  - x(32) + x(39) <= -0
constr(42):  - x(23) + x(40) <= -0
constr(43):  - x(28) + x(41) <= -0
constr(44):  - x(19) + x(42) <= -0
constr(45):  - x(18) + x(43) <= -0
constr(46):  - x(41) + x(44) <= -0
constr(47):  - x(32) + x(45) <= -0
constr(48):  - x(32) + x(46) <= -0
constr(49):  - x(20) + x(47) <= -0
constr(50):  1318 x(0) - R <= -0
constr(51):  1713 x(1) - R <= -0
constr(52):  2771 x(2) - R <= -0
constr(53):  2283 x(3) - R <= -0
constr(54):  3220 x(4) - R <= -0
constr(55):  2162 x(5) - R <= -0
constr(56):  1128 x(6) - R <= -0
constr(57):  1143 x(7) - R <= -0
constr(58):  2436 x(8) - R <= -0
constr(59):  1609 x(9) - R <= -0
constr(60):  4137 x(10) - R <= -0
constr(61):  909 x(11) - R <= -0
constr(62):  1459 x(12) - R <= -0
constr(63):  1069 x(13) - R <= -0
constr(64):  1462 x(14) - R <= -0
constr(65):  829 x(15) - R <= -0
constr(66):  2333 x(16) - R <= -0
constr(67):  1012 x(17) - R <= -0
constr(68):  906 x(18) - R <= -0
constr(69):  782 x(19) - R <= -0
constr(70):  225 x(20) - R <= -0
constr(71):  2619 x(21) - R <= -0
constr(72):  1516 x(22) - R <= -0
constr(73):  1704 x(23) - R <= -0
constr(74):  3695 x(24) - R <= -0
constr(75):  2838 x(25) - R <= -0
constr(76):  917 x(26) - R <= -0
constr(77):  789 x(27) - R <= -0
constr(78):  2400 x(28) - R <= -0
constr(79):  1115 x(29) - R <= -0
constr(80):  2015 x(30) - R <= -0
constr(81):  2615 x(31) - R <= -0
constr(82):  R >= -0
constr(83):  1728 x(33) - R <= -0
constr(84):  4371 x(34) - R <= -0
constr(85):  1038 x(35) - R <= -0
constr(86):  725 x(36) - R <= -0
constr(87):  1216 x(37) - R <= -0
constr(88):  2982 x(38) - R <= -0
constr(89):  1065 x(39) - R <= -0
constr(90):  3555 x(40) - R <= -0
constr(91):  3482 x(41) - R <= -0
constr(92):  1663 x(42) - R <= -0
constr(93):  1157 x(43) - R <= -0
constr(94):  4223 x(44) - R <= -0
constr(95):  1681 x(45) - R <= -0
constr(96):  659 x(46) - R <= -0
constr(97):  1781 x(47) - R <= -0
Bounds
 0 <= x(0) <= 1
 0 <= x(1) <= 1
 0 <= x(2) <= 1
 0 <= x(3) <= 1
 0 <= x(4) <= 1
 0 <= x(5) <= 1
 0 <= x(6) <= 1
 0 <= x(7) <= 1
 0 <= x(8) <= 1
 0 <= x(9) <= 1
 0 <= x(10) <= 1
 0 <= x(11) <= 1
 0 <= x(12) <= 1
 0 <= x(13) <= 1
 0 <= x(14) <= 1
 0 <= x(15) <= 1
 0 <= x(16) <= 1
 0 <= x(17) <= 1
 0 <= x(18) <= 1
 0 <= x(19) <= 1
 0 <= x(20) <= 1
 0 <= x(21) <= 1
 0 <= x(22) <= 1
 0 <= x(23) <= 1
 0 <= x(24) <= 1
 0 <= x(25) <= 1
 0 <= x(26) <= 1
 0 <= x(27) <= 1
 0 <= x(28) <= 1
 0 <= x(29) <= 1
 0 <= x(30) <= 1
 0 <= x(31) <= 1
 0 <= x(32) <= 1
 0 <= x(33) <= 1
 0 <= x(34) <= 1
 0 <= x(35) <= 1
 0 <= x(36) <= 1
 0 <= x(37) <= 1
 0 <= x(38) <= 1
 0 <= x(39) <= 1
 0 <= x(40) <= 1
 0 <= x(41) <= 1
 0 <= x(42) <= 1
 0 <= x(43) <= 1
 0 <= x(44) <= 1
 0 <= x(45) <= 1
 0 <= x(46) <= 1
 0 <= x(47) <= 1
Integers
x(0) x(1) x(2) x(3) x(4) x(5) x(6) x(7) x(8) x(9) 
x(10) x(11) x(12) x(13) x(14) x(15) x(16) x(17) x(18) x(19) 
x(20) x(21) x(22) x(23) x(24) x(25) x(26) x(27) x(28) x(29) 
x(30) x(31) x(32) x(33) x(34) x(35) x(36) x(37) x(38) x(39) 
x(40) x(41) x(42) x(43) x(44) x(45) x(46) x(47) 
End
